(set-info :origin "SVCOMP13 benchmarks generated by Arie Gurfinkel")
(set-info :status unsat)
(set-logic HORN)
(declare-fun cp-rel-entry () Bool)
(declare-fun cp-rel-__UFO__0 (Real Real Real Real) Bool)
(declare-fun cp-rel-UnifiedReturnBlock () Bool)
(declare-fun cp-rel-ldv_23956 (Real Real Real Real) Bool)
(declare-fun cp-rel-ldv_23956.outer (Real Real Real Real) Bool)
(assert |cp-rel-entry|)
(assert (forall ((?A Real) (?B Real) (?C Real) (?D Real) (?E Bool) )(let (($x67182 (|cp-rel-ldv_23956.outer| ?A ?B ?C ?D)))
(let (($x25486 (= ?E true)))
(=> (and |cp-rel-entry| (<= ?D 1.0) $x25486 (>= ?D 1.0)) $x67182))))
)
(assert (forall ((?A Real) (?B Real) (?C Real) (?D Real) (?E Real) (?F Bool) (?G Bool) (?H Bool) (?I Bool) (?J Bool) (?K Bool) (?L Bool) (?M Bool) (?N Bool) (?O Bool) (?P Bool) (?Q Bool) (?R Bool) (?S Bool) (?T Bool) (?U Bool) (?V Bool) (?W Bool) (?X Bool) (?Y Bool) (?Z Bool) (?A1 Bool) (?B1 Real) (?C1 Real) (?D1 Bool) (?E1 Bool) (?F1 Bool) (?G1 Bool) (?H1 Bool) (?I1 Bool) (?J1 Bool) (?K1 Bool) (?L1 Bool) (?M1 Bool) (?N1 Bool) (?O1 Bool) (?P1 Real) (?Q1 Real) (?R1 Bool) (?S1 Real) (?T1 Bool) (?U1 Bool) (?V1 Bool) (?W1 Bool) (?X1 Bool) (?Y1 Bool) (?Z1 Bool) (?A2 Bool) (?B2 Bool) (?C2 Bool) (?D2 Bool) (?E2 Bool) (?F2 Bool) (?G2 Bool) (?H2 Real) (?I2 Real) (?J2 Bool) (?K2 Bool) (?L2 Bool) (?M2 Real) (?N2 Real) (?O2 Bool) (?P2 Bool) (?Q2 Bool) (?R2 Bool) (?S2 Bool) (?T2 Bool) (?U2 Bool) (?V2 Bool) (?W2 Bool) (?X2 Bool) (?Y2 Bool) (?Z2 Bool) (?A3 Bool) (?B3 Bool) (?C3 Real) (?D3 Real) (?E3 Real) (?F3 Bool) (?G3 Bool) (?H3 Bool) (?I3 Bool) (?J3 Bool) (?K3 Bool) (?L3 Real) (?M3 Real) (?N3 Real) (?O3 Real) (?P3 Real) (?Q3 Real) (?R3 Real) (?S3 Real) (?T3 Real) (?U3 Real) (?V3 Real) (?W3 Real) (?X3 Real) (?Y3 Real) (?Z3 Real) (?A4 Real) )(let (($x77324 (not ?Y)))
(let (($x43681 (or $x77324 (and ?V ?Z (not ?A1) (<= ?B1 ?C1) (>= ?B1 ?C1)) (and ?S ?D1 ?X (<= ?B1 (~ 19.0)) (>= ?B1 (~ 19.0))))))
(let (($x5992 (or (not ?N1) (and ?K1 ?O1 (<= ?P1 ?Q1) (>= ?P1 ?Q1)) (and ?E1 ?R1 ?J1 (<= ?P1 ?S1) (>= ?P1 ?S1)) (and ?Y ?T1 ?G1 (<= ?P1 ?S1) (>= ?P1 ?S1)))))
(let (($x82243 (or (not ?N1) (and ?O1 (not ?R1) (not ?T1)) (and ?R1 (not ?O1) (not ?T1)) (and ?T1 (not ?O1) (not ?R1)))))
(let (($x83475 (not ?U1)))
(let (($x11492 (or $x83475 ?V1)))
(let (($x35885 (not ?X1)))
(let (($x79381 (or $x35885 ?Y1)))
(let (($x73437 (not ?F2)))
(let (($x87446 (or $x73437 (and ?Z1 ?G2 (not ?E2) (<= ?H2 ?I2) (>= ?H2 ?I2)) (and ?X1 ?J2 ?B2 (<= ?H2 ?P1) (>= ?H2 ?P1)))))
(let (($x44909 (and ?V ?Q2 ?A1 (<= ?M2 ?C1) (>= ?M2 ?C1) (<= ?N2 ?S1) (>= ?N2 ?S1))))
(let (($x68523 (>= ?M2 ?B1)))
(let (($x71965 (<= ?M2 ?B1)))
(let (($x68949 (not ?K2)))
(let (($x83443 (or $x68949 (and ?U1 ?L2 $x71965 $x68523 (<= ?N2 ?P1) (>= ?N2 ?P1)) (and ?F2 ?O2 $x71965 $x68523 (<= ?N2 ?H2) (>= ?N2 ?H2)) (and ?C2 ?P2 $x71965 $x68523 (<= ?N2 ?I2) (>= ?N2 ?I2)) $x44909)))
(let (($x71189 (or $x68949 (and ?L2 (not ?O2) (not ?P2) (not ?Q2)) (and ?O2 (not ?L2) (not ?P2) (not ?Q2)) (and ?P2 (not ?L2) (not ?O2) (not ?Q2)) (and ?Q2 (not ?L2) (not ?O2) (not ?P2)))))
(let (($x3995 (>= ?C3 (~ 19.0))))
(let (($x46614 (<= ?C3 (~ 19.0))))
(let (($x6211 (>= ?C3 ?M2)))
(let (($x20945 (<= ?C3 ?M2)))
(let (($x16716 (not ?A3)))
(let (($x49235 (or $x16716 (and ?X2 ?B3 $x20945 $x6211 (<= ?D3 ?E3) (>= ?D3 ?E3)) (and ?R2 ?F3 ?W2 $x20945 $x6211 (<= ?D3 ?N2) (>= ?D3 ?N2)) (and ?K2 ?G3 ?T2 $x20945 $x6211 (<= ?D3 ?N2) (>= ?D3 ?N2)) (and ?P ?H3 (not ?U) $x46614 $x3995 (<= ?D3 ?S1) (>= ?D3 ?S1)) (and ?M ?I3 ?R $x46614 $x3995 (<= ?D3 ?E) (>= ?D3 ?E)) (and ?J ?J3 ?O $x46614 $x3995 (<= ?D3 ?E) (>= ?D3 ?E)))))
(let (($x9915 (or $x16716 (and ?B3 (not ?F3) (not ?G3) (not ?H3) (not ?I3) (not ?J3)) (and ?F3 (not ?B3) (not ?G3) (not ?H3) (not ?I3) (not ?J3)) (and ?G3 (not ?B3) (not ?F3) (not ?H3) (not ?I3) (not ?J3)) (and ?H3 (not ?B3) (not ?F3) (not ?G3) (not ?I3) (not ?J3)) (and ?I3 (not ?B3) (not ?F3) (not ?G3) (not ?H3) (not ?J3)) (and ?J3 (not ?B3) (not ?F3) (not ?G3) (not ?H3) (not ?I3)))))
(let (($x53036 (and (|cp-rel-ldv_23956| ?A ?B ?C ?E) (= ?E3 (+ (~ 1.0) ?N2)) (= ?Z2 (not (<= ?N2 1.0))) (= ?W2 (= ?A4 0.0)) (= ?T2 (= ?W3 0.0)) (= ?I2 (+ ?Z3 ?P1)) (= ?Z3 (ite ?E2 1.0 0.0)) (= ?E2 (= ?Y3 1.0)) (= ?B2 (= ?X3 0.0)) (= ?W1 (= ?W3 0.0)) (= ?Q1 (+ (~ 1.0) ?S1)) (= ?M1 (not (<= ?S1 1.0))) (= ?J1 (= ?V3 0.0)) (= ?G1 (= ?U3 0.0)) (= ?A1 (= ?C1 0.0)) (= ?X (= ?T3 0.0)) (= ?S1 (+ ?S3 ?E)) (= ?S3 (ite ?U 1.0 0.0)) (= ?U (= ?R3 1.0)) (= ?R (= ?Q3 0.0)) (= ?O (= ?P3 0.0)) (= ?N3 ?O3) (= ?L (= ?M3 0.0)) (= ?I (= ?L3 0.0)) (>= ?D ?D3) (<= ?D ?D3) (= ?K3 true) (= ?A3 true) $x9915 $x49235 (or (not ?X2) ?Y2) (or (not ?X2) (and ?U2 ?Y2 ?Z2)) (or (not ?U2) ?V2) (or (not ?U2) (and ?R2 ?V2 (not ?W2))) (or (not ?R2) ?S2) (or (not ?R2) (and ?K2 ?S2 (not ?T2))) $x71189 $x83443 (or $x73437 (and ?G2 (not ?J2)) (and ?J2 (not ?G2))) $x87446 (or (not ?C2) ?D2) (or (not ?C2) (and ?Z1 ?D2 ?E2)) (or (not ?Z1) ?A2) (or (not ?Z1) (and ?X1 ?A2 (not ?B2))) $x79381 (or $x35885 (and ?N1 ?Y1 (not ?W1))) $x11492 (or $x83475 (and ?N1 ?V1 ?W1)) $x82243 $x5992 (or (not ?K1) ?L1) (or (not ?K1) (and ?H1 ?L1 ?M1)) (or (not ?H1) ?I1) (or (not ?H1) (and ?E1 ?I1 (not ?J1))) (or (not ?E1) ?F1) (or (not ?E1) (and ?Y ?F1 (not ?G1))) (or $x77324 (and ?Z (not ?D1)) (and ?D1 (not ?Z))) $x43681 (or (not ?V) ?W) (or (not ?V) (and ?S ?W (not ?X))) (or (not ?S) ?T) (or (not ?S) (and ?P ?T ?U)) (or (not ?P) ?Q) (or (not ?P) (and ?M ?Q (not ?R))) (or (not ?M) ?N) (or (not ?M) (and ?J ?N (not ?O))) (or (not ?J) ?K) (or (not ?J) (and ?F ?K ?L)) (or (not ?F) ?H) (or (not ?F) (and ?G ?H (not ?I))) (= ?K3 (= ?C3 0.0)))))
(=> $x53036 (|cp-rel-ldv_23956.outer| ?A ?B ?C ?D)))))))))))))))))))))))))))
)
(assert (forall ((?A Real) (?B Real) (?C Real) (?D Real) (?E Bool) )(=> (and (|cp-rel-ldv_23956.outer| ?A ?B ?C ?D) (= ?E true)) (|cp-rel-ldv_23956| ?A ?B ?C ?D)))
)
(assert (forall ((?A Real) (?B Real) (?C Real) (?D Real) (?E Bool) (?F Bool) (?G Bool) (?H Bool) (?I Bool) (?J Real) (?K Real) )(let (($x2876 (|cp-rel-ldv_23956| ?A ?B ?C ?D)))
(let (($x53038 (and $x2876 (= ?H (= ?J 0.0)) (not (= ?I true)) (= ?E true) (or (not ?E) ?G) (or (not ?E) (and ?F ?G (not ?H))) (= ?I (= ?K 0.0)))))
(=> $x53038 $x2876))))
)
(assert (forall ((?A Real) (?B Real) (?C Real) (?D Real) (?E Bool) (?F Bool) (?G Bool) (?H Bool) (?I Bool) (?J Bool) (?K Bool) (?L Bool) (?M Bool) (?N Bool) (?O Bool) (?P Bool) (?Q Bool) (?R Bool) (?S Bool) (?T Bool) (?U Bool) (?V Bool) (?W Bool) (?X Bool) (?Y Bool) (?Z Bool) (?A1 Real) (?B1 Real) (?C1 Bool) (?D1 Bool) (?E1 Bool) (?F1 Bool) (?G1 Bool) (?H1 Bool) (?I1 Bool) (?J1 Bool) (?K1 Bool) (?L1 Bool) (?M1 Bool) (?N1 Bool) (?O1 Real) (?P1 Real) (?Q1 Bool) (?R1 Real) (?S1 Bool) (?T1 Bool) (?U1 Bool) (?V1 Bool) (?W1 Bool) (?X1 Bool) (?Y1 Bool) (?Z1 Bool) (?A2 Bool) (?B2 Bool) (?C2 Bool) (?D2 Bool) (?E2 Bool) (?F2 Bool) (?G2 Real) (?H2 Real) (?I2 Bool) (?J2 Bool) (?K2 Bool) (?L2 Real) (?M2 Real) (?N2 Bool) (?O2 Bool) (?P2 Bool) (?Q2 Bool) (?R2 Bool) (?S2 Bool) (?T2 Bool) (?U2 Bool) (?V2 Bool) (?W2 Bool) (?X2 Bool) (?Y2 Bool) (?Z2 Bool) (?A3 Bool) (?B3 Real) (?C3 Real) (?D3 Real) (?E3 Bool) (?F3 Bool) (?G3 Bool) (?H3 Bool) (?I3 Bool) (?J3 Bool) (?K3 Real) (?L3 Real) (?M3 Real) (?N3 Real) (?O3 Real) (?P3 Real) (?Q3 Real) (?R3 Real) (?S3 Real) (?T3 Real) (?U3 Real) (?V3 Real) (?W3 Real) (?X3 Real) (?Y3 Real) (?Z3 Real) (?A4 Bool) (?B4 Bool) (?C4 Real) (?D4 Bool) (?E4 Bool) )(let (($x6104 (= ?E4 (= ?C4 1.0))))
(let (($x85860 (or (not ?E) (and ?F ?G (not ?H)))))
(let (($x64624 (or (not ?E) ?G)))
(let (($x78540 (or (not ?I) (and ?E ?J ?K))))
(let (($x5450 (or (not ?I) ?J)))
(let (($x12500 (or (not ?L) (and ?I ?M (not ?N)))))
(let (($x8380 (or (not ?L) ?M)))
(let (($x86246 (or (not ?O) (and ?L ?P (not ?Q)))))
(let (($x87199 (or (not ?O) ?P)))
(let (($x37177 (or (not ?R) (and ?O ?S ?T))))
(let (($x86969 (or (not ?R) ?S)))
(let (($x8355 (or (not ?U) (and ?R ?V (not ?W)))))
(let (($x22109 (or (not ?U) ?V)))
(let (($x375 (or (not ?X) (and ?U ?Y (not ?Z) (<= ?A1 ?B1) (>= ?A1 ?B1)) (and ?R ?C1 ?W (<= ?A1 (~ 19.0)) (>= ?A1 (~ 19.0))))))
(let (($x5158 (or (not ?X) (and ?Y (not ?C1)) (and ?C1 (not ?Y)))))
(let (($x68530 (not ?D1)))
(let (($x62908 (or $x68530 (and ?X ?E1 (not ?F1)))))
(let (($x70611 (or $x68530 ?E1)))
(let (($x28409 (or (not ?G1) (and ?D1 ?H1 (not ?I1)))))
(let (($x37804 (or (not ?G1) ?H1)))
(let (($x21294 (or (not ?J1) (and ?G1 ?K1 ?L1))))
(let (($x58955 (or (not ?J1) ?K1)))
(let (($x63719 (or (not ?M1) (and ?J1 ?N1 (<= ?O1 ?P1) (>= ?O1 ?P1)) (and ?D1 ?Q1 ?I1 (<= ?O1 ?R1) (>= ?O1 ?R1)) (and ?X ?S1 ?F1 (<= ?O1 ?R1) (>= ?O1 ?R1)))))
(let (($x35785 (or (not ?M1) (and ?N1 (not ?Q1) (not ?S1)) (and ?Q1 (not ?N1) (not ?S1)) (and ?S1 (not ?N1) (not ?Q1)))))
(let (($x15443 (or (not ?T1) (and ?M1 ?U1 ?V1))))
(let (($x5242 (or (not ?T1) ?U1)))
(let (($x68292 (or (not ?W1) (and ?M1 ?X1 (not ?V1)))))
(let (($x45202 (or (not ?W1) ?X1)))
(let (($x83475 (not ?Y1)))
(let (($x11535 (or $x83475 (and ?W1 ?Z1 (not ?A2)))))
(let (($x11492 (or $x83475 ?Z1)))
(let (($x35885 (not ?B2)))
(let (($x52659 (or $x35885 (and ?Y1 ?C2 ?D2))))
(let (($x79381 (or $x35885 ?C2)))
(let (($x13569 (or (not ?E2) (and ?Y1 ?F2 (not ?D2) (<= ?G2 ?H2) (>= ?G2 ?H2)) (and ?W1 ?I2 ?A2 (<= ?G2 ?O1) (>= ?G2 ?O1)))))
(let (($x13731 (or (not ?E2) (and ?F2 (not ?I2)) (and ?I2 (not ?F2)))))
(let (($x68029 (and ?U ?P2 ?Z (<= ?L2 ?B1) (>= ?L2 ?B1) (<= ?M2 ?R1) (>= ?M2 ?R1))))
(let (($x5892 (>= ?L2 ?A1)))
(let (($x65707 (<= ?L2 ?A1)))
(let (($x73437 (not ?J2)))
(let (($x86490 (or $x73437 (and ?T1 ?K2 $x65707 $x5892 (<= ?M2 ?O1) (>= ?M2 ?O1)) (and ?E2 ?N2 $x65707 $x5892 (<= ?M2 ?G2) (>= ?M2 ?G2)) (and ?B2 ?O2 $x65707 $x5892 (<= ?M2 ?H2) (>= ?M2 ?H2)) $x68029)))
(let (($x82344 (or $x73437 (and ?K2 (not ?N2) (not ?O2) (not ?P2)) (and ?N2 (not ?K2) (not ?O2) (not ?P2)) (and ?O2 (not ?K2) (not ?N2) (not ?P2)) (and ?P2 (not ?K2) (not ?N2) (not ?O2)))))
(let (($x84804 (or (not ?Q2) (and ?J2 ?R2 (not ?S2)))))
(let (($x84345 (or (not ?Q2) ?R2)))
(let (($x42435 (not ?T2)))
(let (($x40050 (or $x42435 (and ?Q2 ?U2 (not ?V2)))))
(let (($x72791 (or $x42435 ?U2)))
(let (($x66428 (or (not ?W2) (and ?T2 ?X2 ?Y2))))
(let (($x37275 (or (not ?W2) ?X2)))
(let (($x1823 (>= ?B3 (~ 19.0))))
(let (($x26160 (<= ?B3 (~ 19.0))))
(let (($x84205 (>= ?B3 ?L2)))
(let (($x65359 (<= ?B3 ?L2)))
(let (($x30809 (or (not ?Z2) (and ?W2 ?A3 $x65359 $x84205 (<= ?C3 ?D3) (>= ?C3 ?D3)) (and ?Q2 ?E3 ?V2 $x65359 $x84205 (<= ?C3 ?M2) (>= ?C3 ?M2)) (and ?J2 ?F3 ?S2 $x65359 $x84205 (<= ?C3 ?M2) (>= ?C3 ?M2)) (and ?O ?G3 (not ?T) $x26160 $x1823 (<= ?C3 ?R1) (>= ?C3 ?R1)) (and ?L ?H3 ?Q $x26160 $x1823 (<= ?C3 ?D) (>= ?C3 ?D)) (and ?I ?I3 ?N $x26160 $x1823 (<= ?C3 ?D) (>= ?C3 ?D)))))
(let (($x69 (or (not ?Z2) (and ?A3 (not ?E3) (not ?F3) (not ?G3) (not ?H3) (not ?I3)) (and ?E3 (not ?A3) (not ?F3) (not ?G3) (not ?H3) (not ?I3)) (and ?F3 (not ?A3) (not ?E3) (not ?G3) (not ?H3) (not ?I3)) (and ?G3 (not ?A3) (not ?E3) (not ?F3) (not ?H3) (not ?I3)) (and ?H3 (not ?A3) (not ?E3) (not ?F3) (not ?G3) (not ?I3)) (and ?I3 (not ?A3) (not ?E3) (not ?F3) (not ?G3) (not ?H3)))))
(let (($x50641 (or (not ?A4) (and ?F ?B4 ?H (<= ?C4 ?D) (>= ?C4 ?D)) (and ?Z2 ?D4 (not ?J3) (<= ?C4 ?C3) (>= ?C4 ?C3)))))
(let (($x37631 (or (not ?A4) (and ?B4 (not ?D4)) (and ?D4 (not ?B4)))))
(let (($x25486 (= ?E4 true)))
(let (($x28556 (= ?H (= ?K3 0.0))))
(let (($x35714 (= ?K (= ?L3 0.0))))
(let (($x81713 (= ?M3 ?N3)))
(let (($x53182 (= ?N (= ?O3 0.0))))
(let (($x54212 (= ?Q (= ?P3 0.0))))
(let (($x2686 (= ?T (= ?Q3 1.0))))
(let (($x7350 (= ?R3 (ite ?T 1.0 0.0))))
(let (($x1571 (= ?R1 (+ ?R3 ?D))))
(let (($x34892 (= ?W (= ?S3 0.0))))
(let (($x5050 (= ?Z (= ?B1 0.0))))
(let (($x8617 (= ?F1 (= ?T3 0.0))))
(let (($x70004 (= ?I1 (= ?U3 0.0))))
(let (($x72799 (= ?L1 (not (<= ?R1 1.0)))))
(let (($x53160 (= ?P1 (+ (~ 1.0) ?R1))))
(let (($x12259 (= ?V1 (= ?V3 0.0))))
(let (($x45673 (= ?A2 (= ?W3 0.0))))
(let (($x11799 (= ?D2 (= ?X3 1.0))))
(let (($x80735 (= ?Y3 (ite ?D2 1.0 0.0))))
(let (($x10238 (= ?H2 (+ ?Y3 ?O1))))
(let (($x3940 (= ?S2 (= ?V3 0.0))))
(let (($x22188 (= ?V2 (= ?Z3 0.0))))
(let (($x67009 (= ?Y2 (not (<= ?M2 1.0)))))
(let (($x69155 (= ?D3 (+ (~ 1.0) ?M2))))
(let (($x37995 (= ?J3 (= ?B3 0.0))))
(let (($x30632 (|cp-rel-ldv_23956| ?A ?B ?C ?D)))
(let (($x72618 (and $x30632 $x37995 $x69155 $x67009 $x22188 $x3940 $x10238 $x80735 $x11799 $x45673 $x12259 $x53160 $x72799 $x70004 $x8617 $x5050 $x34892 $x1571 $x7350 $x2686 $x54212 $x53182 $x81713 $x35714 $x28556 $x25486 (= ?A4 true) $x37631 $x50641 $x69 $x30809 $x37275 $x66428 $x72791 $x40050 $x84345 $x84804 $x82344 $x86490 $x13731 $x13569 $x79381 $x52659 $x11492 $x11535 $x45202 $x68292 $x5242 $x15443 $x35785 $x63719 $x58955 $x21294 $x37804 $x28409 $x70611 $x62908 $x5158 $x375 $x22109 $x8355 $x86969 $x37177 $x87199 $x86246 $x8380 $x12500 $x5450 $x78540 $x64624 $x85860 $x6104)))
(=> $x72618 (|cp-rel-__UFO__0| ?A ?B ?C ?D)))))))))))))))))))))))))))))))))))))))))))))))))))))))))))))))))))))))))))))))))))))))
)
(assert (forall ((?A Real) (?B Real) (?C Real) (?D Real) (?E Bool) )(let (($x13084 (|cp-rel-__UFO__0| ?A ?B ?C ?D)))
(=> (and $x13084 (= ?E true)) $x13084)))
)
(assert (forall ((?A Real) (?B Real) (?C Real) (?D Real) (?E Bool) (?F Bool) (?G Bool) (?H Bool) (?I Bool) (?J Bool) (?K Bool) (?L Bool) (?M Bool) (?N Bool) (?O Bool) (?P Bool) (?Q Bool) (?R Bool) (?S Bool) (?T Bool) (?U Bool) (?V Bool) (?W Bool) (?X Bool) (?Y Bool) (?Z Bool) (?A1 Real) (?B1 Real) (?C1 Bool) (?D1 Bool) (?E1 Bool) (?F1 Bool) (?G1 Bool) (?H1 Bool) (?I1 Bool) (?J1 Bool) (?K1 Bool) (?L1 Bool) (?M1 Bool) (?N1 Bool) (?O1 Real) (?P1 Real) (?Q1 Bool) (?R1 Real) (?S1 Bool) (?T1 Bool) (?U1 Bool) (?V1 Bool) (?W1 Bool) (?X1 Bool) (?Y1 Bool) (?Z1 Bool) (?A2 Bool) (?B2 Bool) (?C2 Bool) (?D2 Bool) (?E2 Bool) (?F2 Bool) (?G2 Real) (?H2 Real) (?I2 Bool) (?J2 Bool) (?K2 Bool) (?L2 Real) (?M2 Real) (?N2 Bool) (?O2 Bool) (?P2 Bool) (?Q2 Bool) (?R2 Bool) (?S2 Bool) (?T2 Bool) (?U2 Bool) (?V2 Bool) (?W2 Bool) (?X2 Bool) (?Y2 Bool) (?Z2 Bool) (?A3 Bool) (?B3 Real) (?C3 Real) (?D3 Real) (?E3 Bool) (?F3 Bool) (?G3 Bool) (?H3 Bool) (?I3 Bool) (?J3 Bool) (?K3 Real) (?L3 Real) (?M3 Real) (?N3 Real) (?O3 Real) (?P3 Real) (?Q3 Real) (?R3 Real) (?S3 Real) (?T3 Real) (?U3 Real) (?V3 Real) (?W3 Real) (?X3 Real) (?Y3 Real) (?Z3 Real) (?A4 Bool) (?B4 Bool) (?C4 Real) (?D4 Bool) (?E4 Bool) )(let (($x6104 (= ?E4 (= ?C4 1.0))))
(let (($x85860 (or (not ?E) (and ?F ?G (not ?H)))))
(let (($x64624 (or (not ?E) ?G)))
(let (($x78540 (or (not ?I) (and ?E ?J ?K))))
(let (($x5450 (or (not ?I) ?J)))
(let (($x12500 (or (not ?L) (and ?I ?M (not ?N)))))
(let (($x8380 (or (not ?L) ?M)))
(let (($x86246 (or (not ?O) (and ?L ?P (not ?Q)))))
(let (($x87199 (or (not ?O) ?P)))
(let (($x37177 (or (not ?R) (and ?O ?S ?T))))
(let (($x86969 (or (not ?R) ?S)))
(let (($x8355 (or (not ?U) (and ?R ?V (not ?W)))))
(let (($x22109 (or (not ?U) ?V)))
(let (($x375 (or (not ?X) (and ?U ?Y (not ?Z) (<= ?A1 ?B1) (>= ?A1 ?B1)) (and ?R ?C1 ?W (<= ?A1 (~ 19.0)) (>= ?A1 (~ 19.0))))))
(let (($x5158 (or (not ?X) (and ?Y (not ?C1)) (and ?C1 (not ?Y)))))
(let (($x68530 (not ?D1)))
(let (($x62908 (or $x68530 (and ?X ?E1 (not ?F1)))))
(let (($x70611 (or $x68530 ?E1)))
(let (($x28409 (or (not ?G1) (and ?D1 ?H1 (not ?I1)))))
(let (($x37804 (or (not ?G1) ?H1)))
(let (($x21294 (or (not ?J1) (and ?G1 ?K1 ?L1))))
(let (($x58955 (or (not ?J1) ?K1)))
(let (($x63719 (or (not ?M1) (and ?J1 ?N1 (<= ?O1 ?P1) (>= ?O1 ?P1)) (and ?D1 ?Q1 ?I1 (<= ?O1 ?R1) (>= ?O1 ?R1)) (and ?X ?S1 ?F1 (<= ?O1 ?R1) (>= ?O1 ?R1)))))
(let (($x35785 (or (not ?M1) (and ?N1 (not ?Q1) (not ?S1)) (and ?Q1 (not ?N1) (not ?S1)) (and ?S1 (not ?N1) (not ?Q1)))))
(let (($x15443 (or (not ?T1) (and ?M1 ?U1 ?V1))))
(let (($x5242 (or (not ?T1) ?U1)))
(let (($x68292 (or (not ?W1) (and ?M1 ?X1 (not ?V1)))))
(let (($x45202 (or (not ?W1) ?X1)))
(let (($x83475 (not ?Y1)))
(let (($x11535 (or $x83475 (and ?W1 ?Z1 (not ?A2)))))
(let (($x11492 (or $x83475 ?Z1)))
(let (($x35885 (not ?B2)))
(let (($x52659 (or $x35885 (and ?Y1 ?C2 ?D2))))
(let (($x79381 (or $x35885 ?C2)))
(let (($x13569 (or (not ?E2) (and ?Y1 ?F2 (not ?D2) (<= ?G2 ?H2) (>= ?G2 ?H2)) (and ?W1 ?I2 ?A2 (<= ?G2 ?O1) (>= ?G2 ?O1)))))
(let (($x13731 (or (not ?E2) (and ?F2 (not ?I2)) (and ?I2 (not ?F2)))))
(let (($x68029 (and ?U ?P2 ?Z (<= ?L2 ?B1) (>= ?L2 ?B1) (<= ?M2 ?R1) (>= ?M2 ?R1))))
(let (($x5892 (>= ?L2 ?A1)))
(let (($x65707 (<= ?L2 ?A1)))
(let (($x73437 (not ?J2)))
(let (($x86490 (or $x73437 (and ?T1 ?K2 $x65707 $x5892 (<= ?M2 ?O1) (>= ?M2 ?O1)) (and ?E2 ?N2 $x65707 $x5892 (<= ?M2 ?G2) (>= ?M2 ?G2)) (and ?B2 ?O2 $x65707 $x5892 (<= ?M2 ?H2) (>= ?M2 ?H2)) $x68029)))
(let (($x82344 (or $x73437 (and ?K2 (not ?N2) (not ?O2) (not ?P2)) (and ?N2 (not ?K2) (not ?O2) (not ?P2)) (and ?O2 (not ?K2) (not ?N2) (not ?P2)) (and ?P2 (not ?K2) (not ?N2) (not ?O2)))))
(let (($x84804 (or (not ?Q2) (and ?J2 ?R2 (not ?S2)))))
(let (($x84345 (or (not ?Q2) ?R2)))
(let (($x42435 (not ?T2)))
(let (($x40050 (or $x42435 (and ?Q2 ?U2 (not ?V2)))))
(let (($x72791 (or $x42435 ?U2)))
(let (($x66428 (or (not ?W2) (and ?T2 ?X2 ?Y2))))
(let (($x37275 (or (not ?W2) ?X2)))
(let (($x1823 (>= ?B3 (~ 19.0))))
(let (($x26160 (<= ?B3 (~ 19.0))))
(let (($x84205 (>= ?B3 ?L2)))
(let (($x65359 (<= ?B3 ?L2)))
(let (($x30809 (or (not ?Z2) (and ?W2 ?A3 $x65359 $x84205 (<= ?C3 ?D3) (>= ?C3 ?D3)) (and ?Q2 ?E3 ?V2 $x65359 $x84205 (<= ?C3 ?M2) (>= ?C3 ?M2)) (and ?J2 ?F3 ?S2 $x65359 $x84205 (<= ?C3 ?M2) (>= ?C3 ?M2)) (and ?O ?G3 (not ?T) $x26160 $x1823 (<= ?C3 ?R1) (>= ?C3 ?R1)) (and ?L ?H3 ?Q $x26160 $x1823 (<= ?C3 ?D) (>= ?C3 ?D)) (and ?I ?I3 ?N $x26160 $x1823 (<= ?C3 ?D) (>= ?C3 ?D)))))
(let (($x69 (or (not ?Z2) (and ?A3 (not ?E3) (not ?F3) (not ?G3) (not ?H3) (not ?I3)) (and ?E3 (not ?A3) (not ?F3) (not ?G3) (not ?H3) (not ?I3)) (and ?F3 (not ?A3) (not ?E3) (not ?G3) (not ?H3) (not ?I3)) (and ?G3 (not ?A3) (not ?E3) (not ?F3) (not ?H3) (not ?I3)) (and ?H3 (not ?A3) (not ?E3) (not ?F3) (not ?G3) (not ?I3)) (and ?I3 (not ?A3) (not ?E3) (not ?F3) (not ?G3) (not ?H3)))))
(let (($x50641 (or (not ?A4) (and ?F ?B4 ?H (<= ?C4 ?D) (>= ?C4 ?D)) (and ?Z2 ?D4 (not ?J3) (<= ?C4 ?C3) (>= ?C4 ?C3)))))
(let (($x37631 (or (not ?A4) (and ?B4 (not ?D4)) (and ?D4 (not ?B4)))))
(let (($x44112 (or (and ?A4 (not ?E4)) (and ?T2 (not ?Y2)) (and ?G1 (not ?L1)))))
(let (($x28556 (= ?H (= ?K3 0.0))))
(let (($x35714 (= ?K (= ?L3 0.0))))
(let (($x81713 (= ?M3 ?N3)))
(let (($x53182 (= ?N (= ?O3 0.0))))
(let (($x54212 (= ?Q (= ?P3 0.0))))
(let (($x2686 (= ?T (= ?Q3 1.0))))
(let (($x7350 (= ?R3 (ite ?T 1.0 0.0))))
(let (($x1571 (= ?R1 (+ ?R3 ?D))))
(let (($x34892 (= ?W (= ?S3 0.0))))
(let (($x5050 (= ?Z (= ?B1 0.0))))
(let (($x8617 (= ?F1 (= ?T3 0.0))))
(let (($x70004 (= ?I1 (= ?U3 0.0))))
(let (($x72799 (= ?L1 (not (<= ?R1 1.0)))))
(let (($x53160 (= ?P1 (+ (~ 1.0) ?R1))))
(let (($x12259 (= ?V1 (= ?V3 0.0))))
(let (($x45673 (= ?A2 (= ?W3 0.0))))
(let (($x11799 (= ?D2 (= ?X3 1.0))))
(let (($x80735 (= ?Y3 (ite ?D2 1.0 0.0))))
(let (($x10238 (= ?H2 (+ ?Y3 ?O1))))
(let (($x3940 (= ?S2 (= ?V3 0.0))))
(let (($x22188 (= ?V2 (= ?Z3 0.0))))
(let (($x67009 (= ?Y2 (not (<= ?M2 1.0)))))
(let (($x69155 (= ?D3 (+ (~ 1.0) ?M2))))
(let (($x37995 (= ?J3 (= ?B3 0.0))))
(let (($x30632 (|cp-rel-ldv_23956| ?A ?B ?C ?D)))
(let (($x86765 (and $x30632 $x37995 $x69155 $x67009 $x22188 $x3940 $x10238 $x80735 $x11799 $x45673 $x12259 $x53160 $x72799 $x70004 $x8617 $x5050 $x34892 $x1571 $x7350 $x2686 $x54212 $x53182 $x81713 $x35714 $x28556 $x44112 $x37631 $x50641 $x69 $x30809 $x37275 $x66428 $x72791 $x40050 $x84345 $x84804 $x82344 $x86490 $x13731 $x13569 $x79381 $x52659 $x11492 $x11535 $x45202 $x68292 $x5242 $x15443 $x35785 $x63719 $x58955 $x21294 $x37804 $x28409 $x70611 $x62908 $x5158 $x375 $x22109 $x8355 $x86969 $x37177 $x87199 $x86246 $x8380 $x12500 $x5450 $x78540 $x64624 $x85860 $x6104)))
(=> $x86765 |cp-rel-UnifiedReturnBlock|))))))))))))))))))))))))))))))))))))))))))))))))))))))))))))))))))))))))))))))))))))))
)
(assert (not cp-rel-UnifiedReturnBlock))
(check-sat)
